c instance by G2
c solution = 1011110000
c Known solution cost is 3723 
p cnf 10 40
w 941 435 627 925 544 686 458 907 569 758
-5 3 1 0
-8 4 6 0
7 -9 2 0
-2 8 -4 0
-8 7 10 0
1 2 7 0
10 -5 -2 0
-1 -10 -5 0
7 -9 5 0
5 -6 -8 0
-2 9 -6 0
7 8 3 0
6 -1 5 0
-1 -2 -6 0
-10 -7 3 0
-8 9 10 0
10 6 -4 0
-4 -5 3 0
-7 4 9 0
-2 -7 -1 0
-10 -9 -7 0
-3 -9 1 0
5 10 4 0
-1 -8 2 0
-8 4 5 0
-10 -6 2 0
-2 3 5 0
5 10 9 0
4 10 3 0
-4 2 -7 0
-6 -2 9 0
6 9 7 0
-7 2 -6 0
2 -7 -6 0
-5 -1 3 0
-9 -3 -5 0
3 -5 10 0
6 9 5 0
-6 -10 2 0
-1 4 7 0
